(set-logic SEPLOG)

(declare-sort GTyp 0)
(declare-sort RefGTyp 0)

(declare-heap (RefGTyp GTyp))

(assert (= (as nil GTyp) (as nil GTyp)))
(assert (= (as nil RefGTyp) (as nil RefGTyp)))

(check-unsat)